NAME          FUSSUSP
ROWS
 G  MINF
 G  MAXW
 G  N
 G  AM-N
 G  NI-N
 G  UR-N
 G  P
 G  K
 G  S
 G  ZN
 G  CLAY
 G  WATR
 G  DEN
 E  WT
 N  COST
 N  PRICE
COLUMNS
*234567890123456789012345678901234567890123456789012345678901
    WATER     MINF          1.000000   MAXW         -0.250000   
    WATER     WATR          1.000000   DEN           0.119750   
    WATER     WT            1.000000   COST          0.000000   
    WATER     PRICE         0.000000   SCALE      2000.000000   
    I280000   MINF          1.000000   MAXW         -0.250000   
    I280000   N             0.280000   AM-N          0.070000   
    I280000   NI-N          0.070000   UR-N          0.140000   
    I280000   WATR          0.300000   DEN           0.093709   
    I280000   WT            1.000000   COST         90.010000   
    I280000   PRICE       112.500000   SCALE      2000.000000   
    I320000   MINF          1.000000   MAXW         -0.250000   
    I320000   N             0.320000   AM-N          0.080000   
    I320000   NI-N          0.080000   UR-N          0.160000   
    I320000   WATR          0.200000   DEN           0.090869   
    I320000   WT            1.000000   COST        102.010000   
    I320000   PRICE       127.500000   SCALE      2000.000000   
    ICLAY     MAXW          1.000000   CLAY          1.000000   
    ICLAY     DEN           0.249350   WT            1.000000   
    ICLAY     COST        100.000000   PRICE       125.000000   
    ICLAY     SCALE      2000.000000   
    WATER     WATR          1.000000   DEN           0.119750   
    WATER     WT            1.000000   COST          0.010000   
    WATER     PRICE         0.000000   SCALE      2000.000000   
    I103000   N             0.100000   AM-N          0.100000   
    I103000   P             0.300000   CLAY          0.015000   
    I103000   WATR          0.363000   DEN           0.090909   
    I103000   WT            1.000000   COST        120.000000   
    I103000   PRICE       150.000000   SCALE      2000.000000   
    I280000   N             0.280000   AM-N          0.070000   
    I280000   NI-N          0.070000   UR-N          0.140000   
    I280000   WATR          0.300000   DEN           0.093709   
    I280000   WT            1.000000   COST         90.000000   
    I280000   PRICE       112.500000   SCALE      2000.000000   
    I320000   N             0.320000   AM-N          0.080000   
    I320000   NI-N          0.080000   UR-N          0.160000   
    I320000   WATR          0.200000   DEN           0.090869   
    I320000   WT            1.000000   COST        102.000000   
    I320000   PRICE       127.500000   SCALE      2000.000000   
    I210000   N             0.210000   AM-N          0.210000   
    I210000   S             0.240000   DEN           0.152663   
    I210000   WT            1.000000   COST        110.000000   
    I210000   PRICE       137.500000   SCALE      2000.000000   
    I000062   K             0.620000   DEN           0.060457   
    I000062   WT            1.000000   COST         90.000000   
    I000062   PRICE       112.500000   SCALE      2000.000000   
    I100000   N             0.100000   AM-N          0.100000   
    I100000   S             0.050000   ZN            0.100000   
    I100000   WATR          0.600000   DEN           0.094690   
    I100000   WT            1.000000   COST        190.000000   
    I100000   PRICE       237.500000   SCALE      2000.000000   
    LIME      WT            1.000000   COST          0.050000   
    LIME      PRICE         0.080000   SCALE         1.000000   
    LASSO     WATR          1.000000   DEN           0.100000   
    LASSO     WT            1.000000   COST          5.625000   
    LASSO     PRICE         6.250000   SCALE         2.500000   
    ATRAZINE  WATR          1.000000   DEN           0.100000   
    ATRAZINE  WT            1.000000   COST          2.000000   
    ATRAZINE  PRICE         2.250000   SCALE         2.330000   
    PRODUCT   MINF         -0.060000   CLAY         -0.015000   
    PRODUCT   WATR         -0.280000   WT           -1.000000   
    PRODUCT   COST          0.006000   PRICE         0.000000   
    PRODUCT   SCALE         1.000000   
*234567890123456789012345678901234567890123456789012345678901
RHS
RANGES
ENDATA
